104708
0,9,28,13,69,61,79,35,25,75,66,19,65,70,8,76,16,57,73,31,39,10,74,81,43,21,4,18,47,23,30,67,58,52,82,7,27,34,37,15,32,26,6,55,50,71,80,42,59,46,48,33,56,2,11,22,54,41,24,68,14,1,29,78,5,60,77,40,51,38,62,3,49,64,17,36,12,20,53,45,44,72,63,0